g3 0 1 0	# problem eco9
 8 8 0 0 8	# vars, constraints, objectives, ranges, eqns
 7 0	# nonlinear constraints, objectives
 0 0	# network constraints: nonlinear, linear
 8 0 0	# nonlinear vars in constraints, objectives, both
 0 0 0 1	# linear network variables; functions; arith, flags
 0 0 0 0 0	# discrete variables: binary, integer, nonlinear (b,c,o)
 55 0	# nonzeros in Jacobian, gradients
 0 0	# max name lengths: constraints, variables
 0 0 0 0 0	# common exprs: b,c,o,c1,o1
C0
o54
4
o2
v1
o0
v0
v2
o2
v3
o0
v2
v4
o2
v5
o0
v4
v6
o16
o2
v7
o1
n0.125
v6
C1
o54
4
o2
v2
o0
v0
v4
o2
v3
o0
v1
v5
o2
v4
v6
o16
o2
v7
o1
n0.25
v5
C2
o54
4
o2
v2
o0
v5
n1
o2
v3
o0
v0
v6
o2
v1
v4
o16
o2
v7
o1
n0.375
v4
C3
o54
4
o2
v0
v4
o2
v1
v5
o2
v2
v6
o16
o2
v7
o1
n0.5
v3
C4
o54
3
o2
v0
v5
o2
v1
v6
o16
o2
v7
o1
n0.625
v2
C5
o1
o2
v0
v6
o2
v7
o1
n0.75
v1
C6
o16
o2
v7
o1
n0.875
v0
C7
n0
x8
0 -0.7483833170716203
1 0.33996022059439557
2 0.6744903317165389
3 0.3384467001249095
4 -0.20281790314063947
5 -0.5361369262321265
6 -0.5356191005044688
7 -0.32994000548698893
r
4 0
4 0
4 0
4 0
4 0
4 0
4 0
4 -1
b
0 -100 100
0 -100 100
0 -100 100
0 -100 100
0 -100 100
0 -100 100
0 -100 100
0 -100 100
k7
8
15
21
26
32
39
47
J0 8
0 1
1 0
2 0
3 0
4 0
5 0
6 0
7 0
J1 8
0 0
1 1
2 0
3 0
4 0
5 0
6 0
7 0
J2 8
0 0
1 0
2 0
3 0
4 0
5 0
6 0
7 0
J3 8
0 0
1 0
2 0
3 1
4 0
5 0
6 0
7 0
J4 7
0 0
1 0
2 0
4 1
5 0
6 0
7 0
J5 5
0 0
1 0
5 1
6 0
7 0
J6 3
0 0
6 1
7 0
J7 8
0 1
1 1
2 1
3 1
4 1
5 1
6 1
7 1
